0001 26
0002 24
0003 13
0004 20
0005 21
0006 4
0007 1
0008 12
0009 9
0010 6
0011 7
0012 31
0013 2
0014 19
0015 35
0016 35
0017 12
0018 24
0019 14
0020 14
0021 20
0022 21
0023 34
0024 8
0025 31
0026 35
0027 25
0028 4
0029 32
0030 34
0031 24
0032 33
0033 1
0034 6
0035 24
0036 32
0037 34
0038 35
0039 22
0040 12
0041 19
0042 23
0043 19
0044 22
0045 12
0046 31
0047 12
0048 23
0049 32
0050 30
0051 27
0052 9
0053 24
0054 30
0055 11
0056 30
0057 13
0058 24
0059 2
0060 25
0061 8
0062 19
0063 3
0064 9
0065 11
0066 4
0067 32
0068 7
0069 1
0070 6
0071 17
0072 27
0073 18
0074 27
0075 33
0076 3
0077 15
0078 6
0079 7
0080 28
0081 35
0082 5
0083 23
0084 13
0085 32
0086 30
0087 34
0088 33
0089 3
0090 4
0091 33
0092 35
0093 16
0094 16
0095 16
0096 12
0097 4
0098 15
0099 19
0100 5
0101 31
0102 1
0103 29
0104 28
0105 34
0106 17
0107 34
0108 11
0109 34
0110 11
0111 7
0112 13
0113 24
0114 34
0115 26
0116 34
0117 34
0118 26
0119 28
0120 3
0121 3
0122 22
0123 6
0124 33
0125 30
0126 35
0127 34
0128 34
0129 2
0130 31
0131 1
0132 13
0133 33
0134 31
0135 16
0136 35
0137 11
0138 35
0139 35
0140 32
0141 35
0142 32
0143 2
0144 3
0145 33
0146 2
0147 35
0148 35
0149 10
0150 17
0151 10
0152 14
0153 23
0154 28
0155 17
0156 11
0157 29
0158 16
0159 12
0160 22
0161 17
0162 8
0163 7
0164 14
0165 10
0166 11
0167 1
0168 28
0169 13
0170 35
0171 2
0172 31
0173 21
0174 10
0175 12
0176 5
0177 8
0178 5
0179 32
0180 35
0181 6
0182 7
0183 15
0184 27
0185 29
0186 34
0187 23
0188 19
0189 30
0190 33
0191 26
0192 18
0193 10
0194 1
0195 24
0196 8
0197 35
0198 2
0199 1
0200 28
0201 1
0202 5
0203 7
0204 30
0205 32
0206 35
0207 2
0208 10
0209 4
0210 6
0211 35
0212 4
0213 29
0214 16
0215 33
0216 1
0217 3
0218 9
0219 7
0220 1
0221 21
0222 2
0223 31
0224 13
0225 27
0226 29
0227 13
0228 22
0229 34
0230 6
0231 4
0232 5
0233 1
0234 35
0235 32
0236 15
0237 26
0238 30
0239 23
0240 28
0241 17
0242 1
0243 26
0244 33
0245 3
0246 24
0247 2
0248 3
0249 28
0250 2
0251 4
0252 5
0253 28
0254 21
0255 11
0256 25
0257 11
0258 35
0259 31
0260 2
0261 3
0262 20
0263 12
0264 12
0265 28
0266 33
0267 23
0268 24
0269 31
0270 27
0271 11
0272 34
0273 34
0274 9
0275 35
0276 25
0277 5
0278 29
0279 26
0280 32
0281 33
0282 2
0283 30
0284 23
0285 35
0286 21
0287 20
0288 3
0289 28
0290 34
0291 27
0292 1
0293 31
0294 32
0295 29
0296 30
0297 24
0298 9
0299 1
0300 26
0301 10
0302 6
0303 1
0304 1
0305 3
0306 17
0307 22
0308 11
0309 1
0310 16
0311 4
0312 25
0313 15
0314 32
0315 3
0316 32
0317 20
0318 13
0319 8
0320 35
0321 2
0322 10
0323 10
0324 28
0325 3
0326 8
0327 29
0328 5
0329 35
0330 6
0331 35
0332 33
0333 34
0334 4
0335 4
0336 3
0337 9
0338 16
0339 10
0340 34
0341 30
0342 2
0343 33
0344 1
0345 31
0346 3
0347 31
0348 6
0349 1
0350 32
0351 18
0352 18
0353 18
0354 27
0355 18
0356 7
0357 27
0358 18
0359 9
0360 9
0361 14
0362 22
0363 2
0364 30
0365 15
0366 8
0367 8
0368 19
0369 29
0370 12
0371 4
0372 4
0373 21
0374 16
0375 13
0376 22
0377 29
0378 28
0379 11
0380 33
0381 35
0382 3
0383 5
0384 6
0385 20
0386 7
0387 28
0388 18
0389 23
0390 25
0391 24
0392 2
0393 2
0394 2
0395 25
0396 15
0397 2
0398 21
0399 20
0400 35
0401 31
0402 34
0403 34
0404 1
0405 4
0406 25
0407 9
0408 25
0409 6
0410 8
0411 12
0412 32
0413 23
0414 21
0415 5
0416 21
0417 29
0418 16
0419 22
0420 17
0421 22
0422 4
0423 33
0424 6
0425 8
0426 19
0427 28
0428 10
0429 11
0430 31
0431 18
0432 27
0433 7
0434 5
0435 9
0436 15
0437 12
0438 11
0439 8
0440 1
0441 35
0442 2
0443 10
0444 20
0445 33
0446 33
0447 19
0448 3
0449 33
0450 3
0451 31
0452 20
0453 21
0454 19
0455 6
0456 16
0457 13
0458 13
0459 2
0460 13
0461 35
0462 5
0463 32
0464 23
0465 25
0466 15
0467 4
0468 6
0469 16
0470 26
0471 8
0472 2
0473 9
0474 12
0475 14
0476 33
0477 15
0478 7
0479 22
0480 13
0481 34
0482 14
0483 8
0484 8
0485 7
0486 8
0487 20
0488 28
0489 4
0490 7
0491 23
0492 7
0493 28
0494 8
0495 24
0496 1
0497 31
0498 30
0499 11
0500 3
0501 18
0502 27
0503 18
0504 18
0505 17
0506 5
0507 3
0508 23
0509 19
0510 12
0511 32
0512 8
0513 20
0514 6
0515 34
0516 14
0517 17
0518 6
0519 28
0520 35
0521 27
0522 6
0523 33
0524 12
0525 35
0526 7
0527 30
0528 27
0529 34
0530 3
0531 5
0532 2
0533 1
0534 34
0535 33
0536 4
0537 29
0538 16
0539 8
0540 8
0541 12
0542 8
0543 30
0544 30
0545 19
0546 26
0547 6
0548 3
0549 35
0550 34
0551 2
0552 9
0553 1
0554 6
0555 4
0556 32
0557 5
0558 2
0559 11
0560 17
0561 12
0562 24
0563 31
0564 34
0565 11
0566 30
0567 9
0568 26
0569 6
0570 24
0571 7
0572 2
0573 34
0574 35
0575 10
0576 3
0577 32
0578 5
0579 14
0580 29
0581 1
0582 2
0583 31
0584 1
0585 27
0586 9
0587 1
0588 31
0589 3
0590 5
0591 35
0592 2
0593 4
0594 12
0595 23
0596 34
0597 34
0598 22
0599 25
0600 18
0601 13
0602 4
0603 35
0604 27
0605 33
0606 32
0607 34
0608 30
0609 35
0610 2
0611 3
0612 30
0613 33
0614 35
0615 2
0616 34
0617 26
0618 35
0619 33
0620 5
0621 29
0622 26
0623 32
0624 25
0625 30
0626 24
0627 30
0628 27
0629 31
0630 2
0631 35
0632 12
0633 29
0634 28
0635 34
0636 5
0637 9
0638 34
0639 32
0640 30
0641 7
0642 4
0643 2
0644 35
0645 3
0646 28
0647 4
0648 5
0649 7
0650 4
0651 14
0652 31
0653 34
0654 8
0655 7
0656 18
0657 1
0658 32
0659 5
0660 1
0661 4
0662 14
0663 8
0664 33
0665 12
0666 6
0667 4
0668 30
0669 3
0670 14
0671 32
0672 7
0673 33
0674 29
0675 5
0676 1
0677 32
0678 33
0679 3
0680 35
0681 2
0682 31
